c Output_time 26.03.2020 18:13:11_+0100 1585242791373804404
c ** Program information **
c program_name                          "QBRG_debug"
c version                               "0.3.20"
c date                                  "25.3.2020"
c gid_id                                "673970833836058123f633335630c185360d632e"
c author                                "Oliver Kullmann"
c url                                   "https://github.com/OKullmann/oklibrary/blob/master/Satisfiability/Transformers/Generators/Random/QBRG.cpp"
c ** Machine information **
c machine_name                          "chyna-Lenovo-G50-70"
c bogomips                              3791.08
c ** Compilation information **
c compiler_version                      "g++ 7.5.0"
c compilation_date                      "Mar_26_2020 11:16:30"
c compilation_options                   "--std=c++17 -pedantic -fmax-errors=5 -Wall -Wextra -g -D_GLIBCXX_DEBUG"
c NDEBUG                                0
c OPTIMIZE                              0
c ** Parameters **
c command-line                          "./QBRG_debug" "e40 a40 40" "214*1,1|2-2,1|3-3,1" "" "1,t" ""
c output                                "QuBlRaGe_120_214_1585242791357124482.qdimacs"
c options                               "filtered,renamed"
c num_quantifier_blocks                 3
c  quantifier_blocks                    1:e1-40 2:a41-80 3:e81-120
c num_clause-blocks                     1
c  clause-blocks                        214 * {1-40,1,1/2} | {41-80,1,1/2} | {81-120,1,1/2}
c num_e-seeds                           30+2=32
c  e-seeds                              1 0 1 0 4 120 2 40 1 40 0 40 1 214 3 1 1 1 1 2 2 2 1 1 2 3 3 1 1 2 1 1585242791357123990
p cnf 120 214
e 1 2 3 4 5 6 7 8 9 10 11 12 13 14 15 16 17 18 19 20 21 22 23 24 25 26 27 28 29 30 31 32 33 34 35 36 37 38 39 40 0
a 41 42 43 44 45 46 47 48 49 50 51 52 53 54 55 56 57 58 59 60 61 62 63 64 65 66 67 68 69 70 71 72 73 74 75 76 77 78 79 80 0
e 81 82 83 84 85 86 87 88 89 90 91 92 93 94 95 96 97 98 99 100 101 102 103 104 105 106 107 108 109 110 111 112 113 114 115 116 117 118 119 120 0
-10 -42 -81 0
25 -55 81 0
-28 76 81 0
37 56 -82 0
20 59 -82 0
24 65 -82 0
-10 -49 82 0
17 48 -83 0
24 -58 -83 0
-13 68 -83 0
15 -46 83 0
17 48 83 0
-22 -52 83 0
-16 -53 83 0
14 -45 -84 0
14 -47 84 0
17 60 84 0
-32 70 84 0
16 69 -85 0
16 -46 85 0
25 46 85 0
30 55 85 0
10 -66 85 0
-7 -61 -86 0
19 -71 -86 0
-11 -41 86 0
20 -46 86 0
20 69 -87 0
27 -51 87 0
33 41 -88 0
-33 -43 -88 0
-7 55 -88 0
-38 63 -88 0
34 50 88 0
17 57 88 0
-19 43 -89 0
16 44 -89 0
28 -54 -89 0
-23 -61 -89 0
-6 63 -89 0
-16 -75 89 0
-27 75 89 0
30 -78 89 0
-11 -41 -90 0
-20 -47 -90 0
-33 47 -90 0
39 72 -90 0
-33 -73 -90 0
-10 48 90 0
-6 51 90 0
13 -72 90 0
17 -77 90 0
39 77 -91 0
28 78 -91 0
-10 -57 -92 0
29 -64 -92 0
-22 65 -92 0
12 42 92 0
-32 51 92 0
-19 -77 92 0
-40 77 92 0
-31 -47 -93 0
-34 -48 -93 0
-3 -74 -93 0
31 44 93 0
15 -50 93 0
-33 69 93 0
-22 61 -94 0
-27 -74 -94 0
-2 59 94 0
-26 60 94 0
28 60 94 0
11 -68 -95 0
21 -48 95 0
-30 -61 95 0
-16 -66 95 0
-10 53 -96 0
19 -59 -96 0
-29 69 -96 0
-32 64 96 0
5 -58 -97 0
-3 74 -97 0
-24 -57 97 0
-39 -57 97 0
-10 -60 97 0
-3 -77 97 0
-32 78 97 0
5 -52 -98 0
-22 -58 -98 0
20 -65 -98 0
15 -43 98 0
19 57 -99 0
5 74 99 0
12 61 -100 0
-15 73 -100 0
-32 -41 100 0
-28 48 -101 0
-37 66 -101 0
18 -72 -101 0
15 -44 101 0
22 61 101 0
30 78 101 0
-30 -45 -102 0
24 -62 -102 0
-18 68 -102 0
16 50 -103 0
19 -56 -103 0
-19 60 -103 0
32 -63 -103 0
-28 -71 -103 0
39 77 -103 0
17 79 -103 0
-38 50 103 0
28 -67 -104 0
-39 -67 -104 0
35 67 -104 0
-11 -63 104 0
-1 -53 -105 0
19 -55 -105 0
-18 62 -105 0
24 -77 -105 0
19 53 105 0
11 70 105 0
13 -71 105 0
-19 -77 105 0
-36 -77 105 0
-27 -46 -106 0
-8 -48 -106 0
4 55 -106 0
18 68 -106 0
28 -42 106 0
-30 -52 106 0
-6 58 106 0
31 -59 106 0
-11 74 106 0
17 -45 -107 0
-22 -56 -107 0
-8 -66 -107 0
17 71 -107 0
12 -53 107 0
-16 -61 107 0
25 76 107 0
-17 -77 107 0
-18 -41 -108 0
-36 -43 -108 0
-20 52 -108 0
-32 -53 -108 0
9 -61 -108 0
-26 -61 -108 0
16 61 -108 0
-20 63 -108 0
29 -66 -108 0
37 68 -108 0
-7 -47 108 0
-24 59 108 0
-6 74 108 0
-6 49 -109 0
-28 -41 109 0
40 -56 -110 0
-3 47 110 0
-25 47 110 0
-36 47 110 0
14 51 110 0
-14 -52 -111 0
22 -55 -111 0
16 58 -111 0
-38 -70 -111 0
-33 -60 111 0
-22 64 111 0
-24 -77 111 0
-37 -55 112 0
26 -59 112 0
35 -60 -113 0
22 42 113 0
11 48 113 0
-16 56 113 0
-27 68 113 0
24 -71 113 0
-28 -66 -114 0
36 -54 114 0
-6 77 114 0
-22 72 -115 0
-2 76 -115 0
7 -78 -115 0
-39 -80 -115 0
31 -45 115 0
10 74 115 0
9 -45 -116 0
-12 -48 -116 0
-27 -43 116 0
36 -66 116 0
36 54 -117 0
-22 57 -117 0
-10 -70 -117 0
-40 51 117 0
-18 53 117 0
11 69 117 0
31 -74 117 0
-21 -65 -118 0
2 -55 118 0
15 -77 118 0
13 -79 118 0
27 64 -119 0
6 52 119 0
-23 -57 119 0
-38 74 119 0
35 43 -120 0
-24 -49 -120 0
-2 64 -120 0
-29 -68 -120 0
-8 68 -120 0
-40 78 -120 0
-21 -63 120 0
29 -71 120 0
